3 3 2
20 1 56 0 70 1 38 2 36 0 61 1 66 0 77 1 10 0 32 2 61 1 85 0 14 2 13 1 43 0 48 2 96 0 29 2 7 0 6 2 62 
20 0 71 1 76 0 71 2 72 1 79 0 16 1 52 2 87 0 62 1 43 0 46 2 35 0 5 2 74 1 43 0 99 2 33 0 88 1 14 2 15 
20 1 20 2 53 0 54 1 19 2 9 1 53 0 62 1 89 0 84 2 14 1 22 0 87 1 69 2 81 0 93 1 70 2 90 0 7 2 67 0 20 

-------------
